(declare-const ent0 Bool)
(declare-const ent1 Bool)
(declare-const ent2 Bool)
(declare-const ent3 Bool)
(declare-const ent4 Bool)
(declare-const ent5 Bool)
(declare-const ent6 Bool)
(declare-const ent7 Bool)
(declare-const ent8 Bool)
(declare-const ent9 Bool)
(declare-const ent10 Bool)
(declare-const ent11 Bool)
(declare-const ent12 Bool)
(declare-const ent13 Bool)
(declare-const ent14 Bool)
(declare-const ent15 Bool)
(declare-const ent16 Bool)
(declare-const ent17 Bool)
(declare-const ent18 Bool)
(declare-const ent19 Bool)
(declare-const reac0 Bool)
(declare-const dir0 Bool)
(declare-const coef0 Int)
(declare-const reac1 Bool)
(declare-const dir1 Bool)
(declare-const coef1 Int)
(declare-const reac2 Bool)
(declare-const dir2 Bool)
(declare-const coef2 Int)
(declare-const reac3 Bool)
(declare-const dir3 Bool)
(declare-const coef3 Int)
(declare-const reac4 Bool)
(declare-const dir4 Bool)
(declare-const coef4 Int)
(declare-const reac5 Bool)
(declare-const dir5 Bool)
(declare-const coef5 Int)
(declare-const reac6 Bool)
(declare-const dir6 Bool)
(declare-const coef6 Int)
(declare-const reac7 Bool)
(declare-const dir7 Bool)
(declare-const coef7 Int)
(declare-const reac8 Bool)
(declare-const dir8 Bool)
(declare-const coef8 Int)
(declare-const reac9 Bool)
(declare-const dir9 Bool)
(declare-const coef9 Int)
(declare-const reac10 Bool)
(declare-const dir10 Bool)
(declare-const coef10 Int)
(declare-const reac11 Bool)
(declare-const dir11 Bool)
(declare-const coef11 Int)
(declare-const reac12 Bool)
(declare-const dir12 Bool)
(declare-const coef12 Int)
(declare-const reac13 Bool)
(declare-const dir13 Bool)
(declare-const coef13 Int)
(declare-const reac14 Bool)
(declare-const dir14 Bool)
(declare-const coef14 Int)
(declare-const reac15 Bool)
(declare-const dir15 Bool)
(declare-const coef15 Int)
(declare-const reac16 Bool)
(declare-const dir16 Bool)
(declare-const coef16 Int)
(declare-const reac17 Bool)
(declare-const dir17 Bool)
(declare-const coef17 Int)
(declare-const reac18 Bool)
(declare-const dir18 Bool)
(declare-const coef18 Int)
(declare-const reac19 Bool)
(declare-const dir19 Bool)
(declare-const coef19 Int)
(declare-const reac20 Bool)
(declare-const dir20 Bool)
(declare-const coef20 Int)
(declare-const reac21 Bool)
(declare-const dir21 Bool)
(declare-const coef21 Int)
(declare-const reac22 Bool)
(declare-const dir22 Bool)
(declare-const coef22 Int)
(declare-const reac23 Bool)
(declare-const dir23 Bool)
(declare-const coef23 Int)
(assert (= dir0 (< coef0 0)))
(assert (= dir1 (< coef1 0)))
(assert (= dir2 (< coef2 0)))
(assert (= dir3 (< coef3 0)))
(assert (= dir4 (< coef4 0)))
(assert (= dir5 (< coef5 0)))
(assert (= dir6 (< coef6 0)))
(assert (= dir7 (< coef7 0)))
(assert (= dir8 (< coef8 0)))
(assert (= dir9 (< coef9 0)))
(assert (= dir10 (< coef10 0)))
(assert (= dir11 (< coef11 0)))
(assert (= dir12 (< coef12 0)))
(assert (= dir13 (< coef13 0)))
(assert (= dir14 (< coef14 0)))
(assert (= dir15 (< coef15 0)))
(assert (= dir16 (< coef16 0)))
(assert (= dir17 (< coef17 0)))
(assert (= dir18 (< coef18 0)))
(assert (= dir19 (< coef19 0)))
(assert (= dir20 (< coef20 0)))
(assert (= dir21 (< coef21 0)))
(assert (= dir22 (< coef22 0)))
(assert (= dir23 (< coef23 0)))
(assert (=> reac0 (and(or ent1 ent0)(or ent4))))
(assert (=> reac1 (and(or ent0 ent4)(or ent5))))
(assert (=> reac2 (and(or ent1 ent4)(or ent6))))
(assert (=> reac3 (and(or ent0 ent2)(or ent6))))
(assert (=> reac4 (and(or ent0 ent3)(or ent7))))
(assert (=> reac5 (and(or ent1 ent2)(or ent8))))
(assert (=> reac6 (and(or ent3 ent3)(or ent9))))
(assert (=> reac7 (and(or ent0 ent7)(or ent9))))
(assert (=> reac8 (and(or ent3 ent2)(or ent10))))
(assert (=> reac9 (and(or ent4 ent4)(or ent10))))
(assert (=> reac10 (and(or ent4 ent2)(or ent11))))
(assert (=> reac11 (and(or ent4 ent3)(or ent12))))
(assert (=> reac12 (and(or ent1 ent8)(or ent13))))
(assert (=> reac13 (and(or ent2 ent8)(or ent14))))
(assert (=> reac14 (and(or ent1 ent12)(or ent15))))
(assert (=> reac15 (and(or ent4 ent5)(or ent15))))
(assert (=> reac16 (and(or ent0 ent13)(or ent16))))
(assert (=> reac17 (and(or ent2 ent6)(or ent16))))
(assert (=> reac18 (and(or ent1 ent10)(or ent17))))
(assert (=> reac19 (and(or ent0 ent11)(or ent17))))
(assert (=> reac20 (and(or ent1 ent9)(or ent18))))
(assert (=> reac21 (and(or ent3 ent5)(or ent18))))
(assert (=> reac22 (and(or ent4 ent7)(or ent18))))
(assert (=> reac23 (and(or ent0 ent9)(or ent19))))
(assert (=> ent0 (> (+ (ite reac0 (* -1 coef0) 0) (ite reac1 (* -1 coef1) 0) (ite reac3 (* -1 coef3) 0) (ite reac4 (* -1 coef4) 0) (ite reac7 (* -1 coef7) 0) (ite reac16 (* -1 coef16) 0) (ite reac19 (* -1 coef19) 0) (ite reac23 (* -1 coef23) 0) 0) 0)))
(assert (=> ent1 (> (+ (ite reac0 (* -1 coef0) 0) (ite reac2 (* -1 coef2) 0) (ite reac5 (* -1 coef5) 0) (ite reac12 (* -1 coef12) 0) (ite reac14 (* -1 coef14) 0) (ite reac18 (* -1 coef18) 0) (ite reac20 (* -1 coef20) 0) 0) 0)))
(assert (=> ent2 (> (+ (ite reac3 (* -1 coef3) 0) (ite reac5 (* -1 coef5) 0) (ite reac8 (* -1 coef8) 0) (ite reac10 (* -1 coef10) 0) (ite reac13 (* -1 coef13) 0) (ite reac17 (* -1 coef17) 0) 0) 0)))
(assert (=> ent3 (> (+ (ite reac4 (* -1 coef4) 0) (ite reac6 (* -2 coef6) 0) (ite reac8 (* -1 coef8) 0) (ite reac11 (* -1 coef11) 0) (ite reac21 (* -1 coef21) 0) 0) 0)))
(assert (=> ent4 (> (+ (ite reac0 (* 1 coef0) 0) (ite reac1 (* -1 coef1) 0) (ite reac2 (* -1 coef2) 0) (ite reac9 (* -2 coef9) 0) (ite reac10 (* -1 coef10) 0) (ite reac11 (* -1 coef11) 0) (ite reac15 (* -1 coef15) 0) (ite reac22 (* -1 coef22) 0) 0) 0)))
(assert (=> ent5 (> (+ (ite reac1 (* 1 coef1) 0) (ite reac15 (* -1 coef15) 0) (ite reac21 (* -1 coef21) 0) 0) 0)))
(assert (=> ent6 (> (+ (ite reac2 (* 1 coef2) 0) (ite reac3 (* 1 coef3) 0) (ite reac17 (* -1 coef17) 0) 0) 0)))
(assert (=> ent7 (> (+ (ite reac4 (* 1 coef4) 0) (ite reac7 (* -1 coef7) 0) (ite reac22 (* -1 coef22) 0) 0) 0)))
(assert (=> ent8 (> (+ (ite reac5 (* 1 coef5) 0) (ite reac12 (* -1 coef12) 0) (ite reac13 (* -1 coef13) 0) 0) 0)))
(assert (=> ent9 (> (+ (ite reac6 (* 1 coef6) 0) (ite reac7 (* 1 coef7) 0) (ite reac20 (* -1 coef20) 0) (ite reac23 (* -1 coef23) 0) 0) 0)))
(assert (=> ent10 (> (+ (ite reac8 (* 1 coef8) 0) (ite reac9 (* 1 coef9) 0) (ite reac18 (* -1 coef18) 0) 0) 0)))
(assert (=> ent11 (> (+ (ite reac10 (* 1 coef10) 0) (ite reac19 (* -1 coef19) 0) 0) 0)))
(assert (=> ent12 (> (+ (ite reac11 (* 1 coef11) 0) (ite reac14 (* -1 coef14) 0) 0) 0)))
(assert (=> ent13 (> (+ (ite reac12 (* 1 coef12) 0) (ite reac16 (* -1 coef16) 0) 0) 0)))
(assert (=> ent14 (> (+ (ite reac13 (* 1 coef13) 0) 0) 0)))
(assert (=> ent15 (> (+ (ite reac14 (* 1 coef14) 0) (ite reac15 (* 1 coef15) 0) 0) 0)))
(assert (=> ent16 (> (+ (ite reac16 (* 1 coef16) 0) (ite reac17 (* 1 coef17) 0) 0) 0)))
(assert (=> ent17 (> (+ (ite reac18 (* 1 coef18) 0) (ite reac19 (* 1 coef19) 0) 0) 0)))
(assert (=> ent18 (> (+ (ite reac20 (* 1 coef20) 0) (ite reac21 (* 1 coef21) 0) (ite reac22 (* 1 coef22) 0) 0) 0)))
(assert (=> ent19 (> (+ (ite reac23 (* 1 coef23) 0) 0) 0)))
(assert ((_ at-most 7) ent0 ent1 ent2 ent3 ent4 ent5 ent6 ent7 ent8 ent9 ent10 ent11 ent12 ent13 ent14 ent15 ent16 ent17 ent18 ent19))
(assert ((_ at-least 7) ent0 ent1 ent2 ent3 ent4 ent5 ent6 ent7 ent8 ent9 ent10 ent11 ent12 ent13 ent14 ent15 ent16 ent17 ent18 ent19))
(assert ((_ at-least 7) reac0 reac1 reac2 reac3 reac4 reac5 reac6 reac7 reac8 reac9 reac10 reac11 reac12 reac13 reac14 reac15 reac16 reac17 reac18 reac19 reac20 reac21 reac22 reac23))
(assert ((_ at-most 7) reac0 reac1 reac2 reac3 reac4 reac5 reac6 reac7 reac8 reac9 reac10 reac11 reac12 reac13 reac14 reac15 reac16 reac17 reac18 reac19 reac20 reac21 reac22 reac23))
(assert (not (and reac6 dir6 reac20 dir20 reac21 (not dir21) ent3 ent9 ent18)))
(assert (not (and reac4 (not dir4) reac6 dir6 reac7 (not dir7) ent3 ent7 ent9)))
(assert (not (and reac4 (not dir4) reac6 dir6 reac20 dir20 reac22 (not dir22) ent3 ent7 ent9 ent18)))
(assert (not (and reac4 (not dir4) reac7 dir7 reac20 dir20 reac22 (not dir22) ent0 ent7 ent9 ent18)))
(assert (not (and reac6 dir6 reac7 (not dir7) reac21 (not dir21) reac22 dir22 ent3 ent7 ent9 ent18)))
(assert (not (and reac8 (not dir8) reac9 dir9 reac21 dir21 reac22 (not dir22) ent3 ent4 ent10 ent18)))
(assert (not (and reac0 dir0 reac9 dir9 reac18 dir18 reac19 (not dir19) ent0 ent4 ent10 ent17)))
(assert (not (and reac9 dir9 reac10 (not dir10) reac18 dir18 reac19 (not dir19) ent4 ent10 ent11 ent17)))
(assert (not (and reac0 (not dir0) reac1 dir1 reac21 dir21 reac22 (not dir22) ent0 ent4 ent5 ent18)))
(assert (not (and reac2 (not dir2) reac3 dir3 reac8 (not dir8) reac9 dir9 ent2 ent4 ent6 ent10)))
(assert (not (and reac0 (not dir0) reac11 dir11 reac14 dir14 reac15 (not dir15) ent1 ent4 ent12 ent15)))
(assert (not (and reac1 dir1 reac11 (not dir11) reac14 (not dir14) reac15 dir15 ent4 ent5 ent12 ent15)))
(assert (not (and reac0 dir0 reac1 dir1 reac14 (not dir14) reac15 dir15 ent1 ent4 ent5 ent15)))
(assert (not (and reac3 dir3 reac5 (not dir5) reac12 (not dir12) reac16 (not dir16) reac17 dir17 ent2 ent6 ent8 ent13 ent16)))
(assert (not (and reac0 dir0 reac2 dir2 reac3 (not dir3) reac20 (not dir20) reac22 dir22 ent0 ent1 ent4 ent6 ent18)))
(assert (not (and reac0 dir0 reac18 dir18 reac19 (not dir19) reac20 (not dir20) reac22 dir22 ent0 ent1 ent4 ent17 ent18)))
(assert (not (and reac0 dir0 reac8 (not dir8) reac9 dir9 reac20 (not dir20) reac21 dir21 ent1 ent3 ent4 ent10 ent18)))
(assert (not (and reac1 dir1 reac14 (not dir14) reac15 dir15 reac20 dir20 reac22 (not dir22) ent1 ent4 ent5 ent15 ent18)))
(assert (not (and reac0 dir0 reac14 (not dir14) reac15 dir15 reac21 (not dir21) reac22 dir22 ent1 ent4 ent5 ent15 ent18)))
(assert (not (and reac0 dir0 reac14 (not dir14) reac15 dir15 reac20 dir20 reac21 (not dir21) ent1 ent4 ent5 ent15 ent18)))
(assert (not (and reac1 (not dir1) reac14 (not dir14) reac15 dir15 reac20 dir20 reac21 (not dir21) ent1 ent4 ent5 ent15 ent18)))
(assert (not (and reac14 (not dir14) reac15 dir15 reac20 dir20 reac21 (not dir21) reac22 (not dir22) ent1 ent4 ent5 ent15 ent18)))
(assert (not (and reac11 dir11 reac14 dir14 reac15 (not dir15) reac20 (not dir20) reac22 dir22 ent1 ent4 ent12 ent15 ent18)))
(assert (not (and reac0 dir0 reac4 dir4 reac20 (not dir20) reac21 (not dir21) reac22 dir22 ent1 ent3 ent4 ent7 ent18)))
(assert (not (and reac0 dir0 reac6 dir6 reac7 (not dir7) reac21 (not dir21) reac22 dir22 ent0 ent3 ent4 ent9 ent18)))
(assert (not (and reac1 dir1 reac6 (not dir6) reac20 (not dir20) reac21 dir21 reac22 (not dir22) ent3 ent4 ent5 ent9 ent18)))
(assert (not (and reac1 dir1 reac6 (not dir6) reac7 (not dir7) reac20 (not dir20) reac21 dir21 ent0 ent3 ent5 ent9 ent18)))
(assert (not (and reac6 dir6 reac8 (not dir8) reac9 dir9 reac20 dir20 reac22 (not dir22) ent3 ent4 ent9 ent10 ent18)))
(assert (not (and reac4 dir4 reac8 dir8 reac9 (not dir9) reac21 (not dir21) reac22 dir22 ent3 ent4 ent7 ent10 ent18)))
(assert (not (and reac1 dir1 reac7 (not dir7) reac20 (not dir20) reac21 dir21 reac22 (not dir22) ent0 ent4 ent5 ent9 ent18)))
(assert (not (and reac1 (not dir1) reac7 dir7 reac20 dir20 reac21 (not dir21) reac22 (not dir22) ent0 ent5 ent7 ent9 ent18)))
(assert (not (and reac11 (not dir11) reac14 (not dir14) reac15 dir15 reac21 (not dir21) reac22 dir22 ent4 ent5 ent12 ent15 ent18)))
(assert (not (and reac1 (not dir1) reac7 (not dir7) reac20 (not dir20) reac21 (not dir21) reac22 dir22 ent4 ent5 ent7 ent9 ent18)))
(assert (not (and reac11 dir11 reac14 dir14 reac15 (not dir15) reac21 (not dir21) reac22 dir22 ent3 ent4 ent12 ent15 ent18)))
(assert (not (and reac2 (not dir2) reac5 dir5 reac12 dir12 reac16 dir16 reac17 (not dir17) ent1 ent6 ent8 ent13 ent16)))
(assert (not (and reac0 dir0 reac8 (not dir8) reac9 dir9 reac16 (not dir16) reac17 dir17 ent0 ent2 ent4 ent10 ent16)))
(assert (not (and reac8 (not dir8) reac9 (not dir9) reac10 dir10 reac18 (not dir18) reac19 dir19 ent2 ent4 ent10 ent11 ent17)))
(assert (not (and reac1 (not dir1) reac4 dir4 reac7 dir7 reac20 dir20 reac21 (not dir21) ent0 ent5 ent7 ent9 ent18)))
(assert (not (and reac2 (not dir2) reac3 (not dir3) reac12 dir12 reac16 dir16 reac17 (not dir17) ent0 ent1 ent6 ent13 ent16)))
(assert (not (and reac0 dir0 reac1 dir1 reac7 (not dir7) reac20 (not dir20) reac21 dir21 ent0 ent4 ent5 ent9 ent18)))
(assert (not (and reac8 (not dir8) reac9 dir9 reac11 dir11 reac14 dir14 reac15 (not dir15) ent3 ent4 ent10 ent12 ent15)))
(assert (not (and reac6 dir6 reac7 (not dir7) reac8 (not dir8) reac18 (not dir18) reac19 dir19 ent0 ent3 ent9 ent10 ent17)))
(assert (not (and reac1 dir1 reac2 dir2 reac3 (not dir3) reac21 dir21 reac22 (not dir22) ent0 ent4 ent5 ent6 ent18)))
(assert (not (and reac2 (not dir2) reac3 dir3 reac9 dir9 reac18 dir18 reac19 (not dir19) ent0 ent4 ent6 ent10 ent17)))
(assert (not (and reac0 dir0 reac6 dir6 reac7 (not dir7) reac8 (not dir8) reac9 dir9 ent0 ent3 ent4 ent9 ent10)))
(assert (not (and reac2 dir2 reac3 (not dir3) reac12 (not dir12) reac16 (not dir16) reac17 dir17 ent1 ent2 ent6 ent13 ent16)))
(assert (not (and reac0 dir0 reac2 dir2 reac12 (not dir12) reac16 (not dir16) reac17 dir17 ent1 ent4 ent6 ent13 ent16)))
(assert (not (and reac0 dir0 reac14 (not dir14) reac15 dir15 reac18 dir18 reac19 (not dir19) ent0 ent1 ent4 ent15 ent17)))
(assert (not (and reac0 dir0 reac2 dir2 reac3 (not dir3) reac14 (not dir14) reac15 dir15 ent0 ent1 ent4 ent6 ent15)))
(assert (not (and reac0 dir0 reac2 dir2 reac3 (not dir3) reac18 (not dir18) reac19 dir19 ent0 ent1 ent4 ent6 ent17)))
(assert (not (and reac0 dir0 reac8 (not dir8) reac9 dir9 reac12 (not dir12) reac16 (not dir16) reac17 dir17 ent1 ent2 ent4 ent10 ent13 ent16)))
(assert (not (and reac7 dir7 reac14 (not dir14) reac15 dir15 reac20 dir20 reac21 (not dir21) reac22 (not dir22) ent1 ent5 ent7 ent9 ent15 ent18)))
(assert (not (and reac1 dir1 reac6 dir6 reac7 (not dir7) reac11 (not dir11) reac14 (not dir14) reac15 dir15 ent0 ent3 ent5 ent9 ent12 ent15)))
(assert (not (and reac1 (not dir1) reac7 dir7 reac14 (not dir14) reac15 dir15 reac20 dir20 reac21 (not dir21) ent0 ent1 ent5 ent9 ent15 ent18)))
(assert (not (and reac1 (not dir1) reac7 dir7 reac18 (not dir18) reac19 dir19 reac20 dir20 reac21 (not dir21) ent0 ent1 ent5 ent9 ent17 ent18)))
(assert (not (and reac0 (not dir0) reac6 (not dir6) reac7 dir7 reac11 dir11 reac14 dir14 reac15 (not dir15) ent0 ent3 ent4 ent9 ent12 ent15)))
(assert (not (and reac4 (not dir4) reac11 dir11 reac14 dir14 reac15 (not dir15) reac21 dir21 reac22 (not dir22) ent3 ent5 ent7 ent12 ent15 ent18)))
(assert (not (and reac10 dir10 reac11 dir11 reac14 dir14 reac15 (not dir15) reac18 (not dir18) reac19 dir19 ent1 ent4 ent11 ent12 ent15 ent17)))
(assert (not (and reac6 (not dir6) reac11 dir11 reac14 dir14 reac15 (not dir15) reac20 (not dir20) reac22 dir22 ent3 ent4 ent9 ent12 ent15 ent18)))
(assert (not (and reac0 dir0 reac1 dir1 reac18 dir18 reac19 (not dir19) reac20 (not dir20) reac21 dir21 ent0 ent1 ent4 ent5 ent17 ent18)))
(assert (not (and reac2 (not dir2) reac3 dir3 reac8 dir8 reac10 (not dir10) reac18 dir18 reac19 (not dir19) ent1 ent2 ent6 ent10 ent11 ent17)))
(assert (not (and reac4 dir4 reac6 (not dir6) reac7 dir7 reac8 dir8 reac18 dir18 reac19 (not dir19) ent0 ent3 ent7 ent9 ent10 ent17)))
(assert (not (and reac0 dir0 reac7 (not dir7) reac8 (not dir8) reac9 dir9 reac20 (not dir20) reac21 dir21 ent0 ent3 ent4 ent9 ent10 ent18)))
(assert (not (and reac0 dir0 reac2 dir2 reac16 (not dir16) reac17 dir17 reac18 (not dir18) reac19 dir19 ent0 ent1 ent4 ent6 ent16 ent17)))
(assert (not (and reac2 (not dir2) reac12 dir12 reac16 dir16 reac17 (not dir17) reac18 dir18 reac19 (not dir19) ent0 ent1 ent6 ent13 ent16 ent17)))
(assert (not (and reac3 (not dir3) reac12 dir12 reac16 dir16 reac17 (not dir17) reac18 (not dir18) reac19 dir19 ent0 ent1 ent6 ent13 ent16 ent17)))
(assert (not (and reac2 dir2 reac3 (not dir3) reac18 (not dir18) reac19 dir19 reac20 dir20 reac22 (not dir22) ent0 ent1 ent4 ent6 ent17 ent18)))
(assert (not (and reac2 dir2 reac3 (not dir3) reac14 dir14 reac15 (not dir15) reac18 (not dir18) reac19 dir19 ent0 ent1 ent4 ent6 ent15 ent17)))
(assert (not (and reac0 dir0 reac2 dir2 reac14 (not dir14) reac15 dir15 reac16 (not dir16) reac17 dir17 ent0 ent1 ent4 ent6 ent15 ent16)))
(assert (not (and reac0 dir0 reac2 dir2 reac16 (not dir16) reac17 dir17 reac20 (not dir20) reac22 dir22 ent0 ent1 ent4 ent6 ent16 ent18)))
(assert (not (and reac0 dir0 reac1 dir1 reac2 dir2 reac3 (not dir3) reac20 (not dir20) reac21 dir21 ent0 ent1 ent4 ent5 ent6 ent18)))
(assert (not (and reac1 dir1 reac18 dir18 reac19 (not dir19) reac20 (not dir20) reac21 dir21 reac22 (not dir22) ent0 ent1 ent4 ent5 ent17 ent18)))
(assert (not (and reac2 (not dir2) reac9 dir9 reac16 dir16 reac17 (not dir17) reac18 dir18 reac19 (not dir19) ent0 ent4 ent6 ent10 ent16 ent17)))
(assert (not (and reac2 (not dir2) reac3 dir3 reac6 dir6 reac7 (not dir7) reac21 (not dir21) reac22 dir22 ent0 ent3 ent4 ent6 ent9 ent18)))
(assert (not (and reac2 dir2 reac12 (not dir12) reac16 (not dir16) reac17 dir17 reac20 dir20 reac22 (not dir22) ent1 ent4 ent6 ent13 ent16 ent18)))
(assert (not (and reac0 dir0 reac2 dir2 reac3 (not dir3) reac10 dir10 reac18 (not dir18) reac19 dir19 ent1 ent2 ent4 ent6 ent11 ent17)))
(assert (not (and reac2 dir2 reac12 (not dir12) reac14 dir14 reac15 (not dir15) reac16 (not dir16) reac17 dir17 ent1 ent4 ent6 ent13 ent15 ent16)))
(assert (not (and reac1 dir1 reac10 (not dir10) reac14 (not dir14) reac15 dir15 reac18 dir18 reac19 (not dir19) ent1 ent4 ent5 ent11 ent15 ent17)))
(assert (not (and reac4 dir4 reac18 dir18 reac19 (not dir19) reac20 (not dir20) reac21 (not dir21) reac22 dir22 ent0 ent1 ent3 ent7 ent17 ent18)))
(assert (not (and reac2 dir2 reac3 (not dir3) reac4 dir4 reac20 (not dir20) reac21 (not dir21) reac22 dir22 ent0 ent1 ent3 ent6 ent7 ent18)))
(assert (not (and reac4 dir4 reac8 dir8 reac18 dir18 reac19 (not dir19) reac21 (not dir21) reac22 dir22 ent0 ent3 ent7 ent10 ent17 ent18)))
(assert (not (and reac0 (not dir0) reac2 (not dir2) reac3 dir3 reac8 (not dir8) reac18 (not dir18) reac19 dir19 ent0 ent2 ent4 ent6 ent10 ent17)))
(assert (not (and reac7 (not dir7) reac8 dir8 reac9 (not dir9) reac20 (not dir20) reac21 (not dir21) reac22 dir22 ent3 ent4 ent7 ent9 ent10 ent18)))
(assert (not (and reac1 dir1 reac9 dir9 reac18 dir18 reac19 (not dir19) reac21 dir21 reac22 (not dir22) ent0 ent4 ent5 ent10 ent17 ent18)))
(assert (not (and reac1 dir1 reac2 dir2 reac16 (not dir16) reac17 dir17 reac21 dir21 reac22 (not dir22) ent0 ent4 ent5 ent6 ent16 ent18)))
(assert (not (and reac1 dir1 reac2 (not dir2) reac3 dir3 reac7 (not dir7) reac20 (not dir20) reac21 dir21 ent0 ent4 ent5 ent6 ent9 ent18)))
(assert (not (and reac2 (not dir2) reac3 dir3 reac6 dir6 reac7 (not dir7) reac8 (not dir8) reac9 dir9 ent0 ent3 ent4 ent6 ent9 ent10)))
(assert (not (and reac1 (not dir1) reac2 (not dir2) reac3 dir3 reac7 dir7 reac20 dir20 reac21 (not dir21) ent0 ent1 ent5 ent6 ent9 ent18)))
(assert (not (and reac7 dir7 reac9 dir9 reac18 dir18 reac19 (not dir19) reac20 dir20 reac22 (not dir22) ent0 ent4 ent9 ent10 ent17 ent18)))
(assert (not (and reac4 (not dir4) reac14 dir14 reac15 (not dir15) reac20 (not dir20) reac21 dir21 reac22 (not dir22) ent1 ent3 ent5 ent7 ent15 ent18)))
(assert (not (and reac0 dir0 reac4 dir4 reac8 (not dir8) reac9 dir9 reac20 (not dir20) reac22 dir22 ent1 ent3 ent4 ent7 ent10 ent18)))
(assert (not (and reac2 (not dir2) reac3 dir3 reac8 (not dir8) reac10 dir10 reac18 (not dir18) reac19 dir19 ent2 ent4 ent6 ent10 ent11 ent17)))
(assert (not (and reac8 (not dir8) reac9 dir9 reac14 dir14 reac15 (not dir15) reac20 (not dir20) reac21 dir21 ent1 ent3 ent4 ent10 ent15 ent18)))
(assert (not (and reac4 dir4 reac14 dir14 reac15 (not dir15) reac20 (not dir20) reac21 (not dir21) reac22 dir22 ent1 ent3 ent4 ent7 ent15 ent18)))
(assert (not (and reac4 (not dir4) reac7 (not dir7) reac8 dir8 reac9 (not dir9) reac20 (not dir20) reac22 dir22 ent3 ent4 ent7 ent9 ent10 ent18)))
(assert (not (and reac6 (not dir6) reac7 (not dir7) reac8 dir8 reac9 (not dir9) reac20 (not dir20) reac22 dir22 ent3 ent4 ent7 ent9 ent10 ent18)))
(assert (not (and reac8 (not dir8) reac10 dir10 reac16 (not dir16) reac17 dir17 reac18 (not dir18) reac19 dir19 ent0 ent2 ent10 ent11 ent16 ent17)))
(assert (not (and reac3 dir3 reac8 (not dir8) reac16 (not dir16) reac17 dir17 reac18 (not dir18) reac19 dir19 ent0 ent2 ent6 ent10 ent16 ent17)))
(assert (not (and reac8 dir8 reac10 (not dir10) reac18 dir18 reac19 (not dir19) reac20 (not dir20) reac21 (not dir21) reac22 dir22 ent1 ent3 ent4 ent10 ent11 ent17 ent18)))
(assert (not (and reac7 dir7 reac8 dir8 reac18 dir18 reac19 (not dir19) reac20 dir20 reac21 (not dir21) reac22 (not dir22) ent0 ent3 ent7 ent9 ent10 ent17 ent18)))
(assert (not (and reac1 dir1 reac2 dir2 reac3 (not dir3) reac8 dir8 reac9 (not dir9) reac14 (not dir14) reac15 dir15 ent1 ent2 ent4 ent5 ent6 ent10 ent15)))
(assert (not (and reac2 dir2 reac5 (not dir5) reac8 dir8 reac9 (not dir9) reac12 (not dir12) reac16 (not dir16) reac17 dir17 ent2 ent4 ent6 ent8 ent10 ent13 ent16)))
(assert (not (and reac2 dir2 reac3 (not dir3) reac6 (not dir6) reac7 dir7 reac11 dir11 reac14 dir14 reac15 (not dir15) ent0 ent3 ent4 ent6 ent9 ent12 ent15)))
(assert (not (and reac1 (not dir1) reac4 dir4 reac6 (not dir6) reac7 dir7 reac11 dir11 reac14 dir14 reac15 (not dir15) ent0 ent3 ent5 ent7 ent9 ent12 ent15)))
(assert (not (and reac4 (not dir4) reac7 (not dir7) reac11 dir11 reac14 dir14 reac15 (not dir15) reac20 (not dir20) reac21 dir21 ent3 ent5 ent7 ent9 ent12 ent15 ent18)))
(assert (not (and reac0 (not dir0) reac8 (not dir8) reac11 dir11 reac14 dir14 reac15 (not dir15) reac18 (not dir18) reac19 dir19 ent0 ent3 ent4 ent10 ent12 ent15 ent17)))
(assert (not (and reac2 (not dir2) reac3 dir3 reac7 (not dir7) reac8 (not dir8) reac9 dir9 reac20 (not dir20) reac21 dir21 ent0 ent3 ent4 ent6 ent9 ent10 ent18)))
(assert (not (and reac5 dir5 reac10 dir10 reac12 dir12 reac16 dir16 reac17 (not dir17) reac18 (not dir18) reac19 dir19 ent1 ent2 ent8 ent11 ent13 ent16 ent17)))
(assert (not (and reac0 dir0 reac10 dir10 reac12 dir12 reac16 dir16 reac17 (not dir17) reac18 (not dir18) reac19 dir19 ent1 ent2 ent4 ent11 ent13 ent16 ent17)))
(assert (not (and reac1 dir1 reac8 (not dir8) reac10 dir10 reac18 (not dir18) reac19 dir19 reac21 dir21 reac22 (not dir22) ent3 ent4 ent5 ent10 ent11 ent17 ent18)))
(assert (not (and reac1 dir1 reac4 (not dir4) reac7 (not dir7) reac8 dir8 reac9 (not dir9) reac20 (not dir20) reac21 dir21 ent3 ent4 ent5 ent7 ent9 ent10 ent18)))
(assert (not (and reac4 dir4 reac8 (not dir8) reac9 dir9 reac14 dir14 reac15 (not dir15) reac20 (not dir20) reac22 dir22 ent1 ent3 ent4 ent7 ent10 ent15 ent18)))
(assert (not (and reac2 dir2 reac3 (not dir3) reac8 dir8 reac9 (not dir9) reac20 (not dir20) reac21 (not dir21) reac22 dir22 ent1 ent2 ent3 ent4 ent6 ent10 ent18)))
(assert (not (and reac2 dir2 reac10 (not dir10) reac12 (not dir12) reac16 (not dir16) reac17 dir17 reac18 dir18 reac19 (not dir19) ent1 ent2 ent6 ent11 ent13 ent16 ent17)))
(assert (not (and reac2 dir2 reac10 (not dir10) reac12 (not dir12) reac16 (not dir16) reac17 dir17 reac18 dir18 reac19 (not dir19) ent1 ent4 ent6 ent11 ent13 ent16 ent17)))
(assert (not (and reac8 dir8 reac10 (not dir10) reac12 (not dir12) reac16 (not dir16) reac17 dir17 reac18 dir18 reac19 (not dir19) ent1 ent2 ent10 ent11 ent13 ent16 ent17)))
(assert (not (and reac3 dir3 reac10 (not dir10) reac12 (not dir12) reac16 (not dir16) reac17 dir17 reac18 dir18 reac19 (not dir19) ent1 ent2 ent6 ent11 ent13 ent16 ent17)))
(assert (not (and reac0 (not dir0) reac5 dir5 reac8 dir8 reac9 (not dir9) reac12 dir12 reac16 dir16 reac17 (not dir17) ent1 ent2 ent4 ent8 ent10 ent13 ent16)))
(assert (not (and reac1 dir1 reac3 (not dir3) reac12 dir12 reac14 (not dir14) reac15 dir15 reac16 dir16 reac17 (not dir17) ent0 ent1 ent5 ent6 ent13 ent15 ent16)))
(assert (not (and reac4 (not dir4) reac7 (not dir7) reac11 dir11 reac14 dir14 reac15 (not dir15) reac20 (not dir20) reac22 dir22 ent3 ent4 ent7 ent9 ent12 ent15 ent18)))
(assert (not (and reac4 dir4 reac10 (not dir10) reac18 dir18 reac19 (not dir19) reac20 (not dir20) reac21 (not dir21) reac22 dir22 ent1 ent3 ent4 ent7 ent11 ent17 ent18)))
(assert (not (and reac0 (not dir0) reac4 dir4 reac7 dir7 reac8 dir8 reac9 (not dir9) reac20 dir20 reac21 (not dir21) ent1 ent3 ent4 ent7 ent9 ent10 ent18)))
(assert (not (and reac0 (not dir0) reac7 dir7 reac11 (not dir11) reac14 (not dir14) reac15 dir15 reac20 dir20 reac21 (not dir21) ent0 ent4 ent5 ent9 ent12 ent15 ent18)))
(assert (not (and reac0 (not dir0) reac7 dir7 reac11 dir11 reac14 dir14 reac15 (not dir15) reac20 dir20 reac21 (not dir21) ent0 ent3 ent4 ent9 ent12 ent15 ent18)))
(assert (not (and reac1 dir1 reac7 (not dir7) reac11 (not dir11) reac14 (not dir14) reac15 dir15 reac20 (not dir20) reac21 dir21 ent0 ent3 ent5 ent9 ent12 ent15 ent18)))
(assert (not (and reac8 (not dir8) reac10 dir10 reac11 dir11 reac14 dir14 reac15 (not dir15) reac18 (not dir18) reac19 dir19 ent3 ent4 ent10 ent11 ent12 ent15 ent17)))
(assert (not (and reac8 (not dir8) reac9 dir9 reac12 (not dir12) reac14 dir14 reac15 (not dir15) reac16 (not dir16) reac17 dir17 ent1 ent2 ent4 ent10 ent13 ent15 ent16)))
(assert (not (and reac8 (not dir8) reac9 dir9 reac12 (not dir12) reac16 (not dir16) reac17 dir17 reac20 dir20 reac22 (not dir22) ent1 ent2 ent4 ent10 ent13 ent16 ent18)))
(assert (not (and reac7 dir7 reac8 (not dir8) reac9 dir9 reac16 (not dir16) reac17 dir17 reac20 dir20 reac22 (not dir22) ent0 ent2 ent4 ent9 ent10 ent16 ent18)))
(assert (not (and reac2 dir2 reac16 (not dir16) reac17 dir17 reac18 (not dir18) reac19 dir19 reac20 dir20 reac22 (not dir22) ent0 ent1 ent4 ent6 ent16 ent17 ent18)))
(assert (not (and reac2 dir2 reac3 (not dir3) reac10 dir10 reac18 (not dir18) reac19 dir19 reac20 dir20 reac22 (not dir22) ent1 ent2 ent4 ent6 ent11 ent17 ent18)))
(check-sat)
(get-model)
